cost: 1114.12
Route 1:           0    3   14   50   38   35   21   12    0
Route 2:           0   10   41    2   27    4    7    0
Route 3:           0   22   29    5   43   49   47   36   25    0
Route 4:           0   24   23   15   34    0
Route 5:           0   30   20   45    8   39    1   26    0
Route 6:           0   31   13   28   44    0
Route 7:           0   33   19    9    0
Route 8:           0   37   17   32    6   11    0
Route 9:           0   46   42   40   18   48   16    0
